(set-option :print-success false)
(set-logic QF_UF)
(declare-sort x13 0)
(declare-fun x9 () Bool)
(declare-fun x7 () x13)
(declare-fun x17 () Bool)
(declare-fun x4 () Bool)
(declare-fun x8 () Bool)
(declare-fun x18 () Bool)
(declare-fun x5 () x13)
(declare-fun x21 () Bool)
(declare-fun x20 () x13)
(declare-fun x25 () x13)
(declare-fun x33 () Bool)
(declare-fun x14 () x13)
(declare-fun x1 () Bool)
(declare-fun x3 (x13 x13) x13)
(declare-fun x27 () Bool)
(declare-fun x28 () Bool)
(declare-fun x34 () x13)
(declare-fun x6 () x13)
(declare-fun x31 () Bool)
(declare-fun x24 () Bool)
(declare-fun x23 () x13)
(declare-fun x19 () Bool)
(declare-fun x12 () Bool)
(declare-fun x2 () Bool)
(declare-fun x10 () x13)
(declare-fun x30 () Bool)
(declare-fun x35 () x13)
(declare-fun x15 () Bool)
(declare-fun x29 () Bool)
(declare-fun x22 () Bool)
(declare-fun x11 () x13)
(declare-fun x32 () Bool)
(declare-fun x36 () x13)
(declare-fun x16 () Bool)
(declare-fun x26 () Bool)
(assert (= x12 (= x10 x5)))
(assert (not (= x10 x7)))
(assert (= (= x34 x20) x27))
(assert (= (not x28) x30))
(assert (= x5 (x3 x25 x7)))
(assert (= x32 (not x17)))
(assert (= x21 (and x26 x12)))
(assert (= (ite x2 x7 x5) x11))
(assert (= (not (= x20 x10)) x1))
(assert (= x22 (= x20 x7)))
(assert (= x2 (= x25 x10)))
(assert x16)
(assert (= (= x1 x32) x31))
(assert (= (= x7 x25) x26))
(assert (= x21 (not x24)))
(assert (= (and x24 x31 x28 x26 x27 x17) x16))
(assert (= x18 (= x10 x6)))
(assert (= x34 (ite x33 x11 x25)))
(assert (= x6 (x3 x20 x7)))
(assert (= x30 (and x18 x22)))
(check-sat)
(exit)
